p tw 37 43
1 2
2 13
3 4
3 30
4 5
5 6
6 7
7 8
8 30
9 10
10 11
10 16
11 12
12 14
13 24
14 15
15 16
16 17
17 18
17 23
18 19
19 20
20 21
21 22
22 30
23 25
24 32
24 37
25 26
25 30
26 27
27 28
28 29
29 30
30 31
32 33
33 34
33 9
34 35
35 36
35 16
36 30
37 3
